p cnf 52 316
37 38  0
-37 -38  0
38 39  0
-38 -39  0
39 42 43  0
37 39 43  0
37 39 -42 43  0
37 39 42 43  0
37 39 42 -43  0
37 39 42  0
-37 39 42 43  0
-37 39 -42 -43  0
37 -39 42 43  0
37 42 43  0
-37 -39 -42 43  0
-39 -42 -43  0
37 -39 -42 -43  0
-37 -39 -42 -43  0
-37 -42 -43  0
-37 -39 -42  0
-37 -39 -43  0
-37 -39 42 -43  0
37 42 45 46  0
37 42 -45 -46  0
37 -42 -46  0
37 -42 45 -46  0
37 -42 -45 -46  0
37 -45 -46  0
37 -42 -45  0
37 -42 -45 46  0
-37 -42  0
-37 -42 -46  0
-37 -42 45  0
-37 -42 46  0
-37 -42 45 46  0
-37 -42 -45  0
-37 -42 -45 -46  0
-37 -42 45 -46  0
-42 -46  0
-42 45 -46  0
-42 -45 -46  0
-42 -45  0
-37 -42 -45 46  0
-42 -45 46  0
-37 -46  0
-37 45 -46  0
-37 -45 -46  0
-37 42 -46  0
-37 42 45 -46  0
-37 42 -45 -46  0
42 -45 -46  0
-45 -46  0
-37 -45  0
-37 -45 46  0
-37 42 -45  0
-37 42 -45 46  0
-1 37  0
-1 38  0
-1 -43  0
-1 -47  0
-1 -46  0
-1 -41  0
1 -37 -38 41 43 46 47  0
-2 37  0
-2 -38  0
-2 43  0
-2 -47  0
-2 -46  0
-2 -41  0
2 -37 38 41 -43 46 47  0
-12 -37  0
-12 38  0
-12 43  0
-12 -47  0
-12 -46  0
-12 -41  0
12 37 -38 41 -43 46 47  0
-22 37  0
-22 -38  0
-22 -43  0
-22 47  0
-22 -46  0
-22 -41  0
22 -37 38 41 43 46 -47  0
-31 -37  0
-31 38  0
-31 -43  0
-31 47  0
-31 -46  0
-31 -41  0
31 37 -38 41 43 46 -47  0
-32 -37  0
-32 -38  0
-32 43  0
-32 47  0
-32 -46  0
-32 -41  0
32 37 38 41 -43 46 -47  0
-33 37  0
-33 -38  0
-33 -43  0
-33 -47  0
-33 46  0
-33 -41  0
33 -37 38 41 43 -46 47  0
-34 -37  0
-34 38  0
-34 -43  0
-34 -47  0
-34 46  0
-34 -41  0
34 37 -38 41 43 -46 47  0
-35 -37  0
-35 -38  0
-35 43  0
-35 -47  0
-35 46  0
-35 -41  0
35 37 38 41 -43 -46 47  0
-36 -37  0
-36 -38  0
-36 -43  0
-36 47  0
-36 46  0
-36 -41  0
36 37 38 41 43 -46 -47  0
-3 37  0
-3 -38  0
-3 -43  0
-3 -47  0
-3 -46  0
-3 41  0
3 -37 38 -41 43 46 47  0
-4 -37  0
-4 38  0
-4 -43  0
-4 -47  0
-4 -46  0
-4 41  0
4 37 -38 -41 43 46 47  0
-5 -37  0
-5 -38  0
-5 43  0
-5 -47  0
-5 -46  0
-5 41  0
5 37 38 -41 -43 46 47  0
-6 -37  0
-6 -38  0
-6 -43  0
-6 47  0
-6 -46  0
-6 41  0
6 37 38 -41 43 46 -47  0
-7 -37  0
-7 -38  0
-7 -43  0
-7 -47  0
-7 46  0
-7 41  0
7 37 38 -41 43 -46 47  0
1 2 3 4 5 6 7 12 22 31 32 33 34 35 36  0
-8 39  0
-8 -40  0
-8 -44  0
-8 -49  0
-8 -48  0
-8 -43  0
8 -39 40 43 44 48 49  0
-9 -39  0
-9 40  0
-9 -44  0
-9 -49  0
-9 -48  0
-9 -43  0
9 39 -40 43 44 48 49  0
-10 -39  0
-10 -40  0
-10 44  0
-10 -49  0
-10 -48  0
-10 -43  0
10 39 40 43 -44 48 49  0
-11 -39  0
-11 -40  0
-11 -44  0
-11 49  0
-11 -48  0
-11 -43  0
11 39 40 43 44 48 -49  0
-13 -39  0
-13 -40  0
-13 -44  0
-13 -49  0
-13 48  0
-13 -43  0
13 39 40 43 44 -48 49  0
-14 -39  0
-14 -40  0
-14 -44  0
-14 -49  0
-14 -48  0
-14 43  0
14 39 40 -43 44 48 49  0
8 9 10 11 13 14  0
-41  0
-46  0
-51  0
-50  0
-15 41  0
-15 42  0
-15 -47  0
-15 -52  0
-15 -51  0
-15 -45  0
15 -41 -42 45 47 51 52  0
-16 41  0
-16 -42  0
-16 47  0
-16 -52  0
-16 -51  0
-16 -45  0
16 -41 42 45 -47 51 52  0
-17 -41  0
-17 42  0
-17 47  0
-17 -52  0
-17 -51  0
-17 -45  0
17 41 -42 45 -47 51 52  0
-18 41  0
-18 -42  0
-18 -47  0
-18 52  0
-18 -51  0
-18 -45  0
18 -41 42 45 47 51 -52  0
-19 -41  0
-19 42  0
-19 -47  0
-19 52  0
-19 -51  0
-19 -45  0
19 41 -42 45 47 51 -52  0
-20 -41  0
-20 -42  0
-20 47  0
-20 52  0
-20 -51  0
-20 -45  0
20 41 42 45 -47 51 -52  0
-21 41  0
-21 -42  0
-21 -47  0
-21 -52  0
-21 51  0
-21 -45  0
21 -41 42 45 47 -51 52  0
-23 -41  0
-23 42  0
-23 -47  0
-23 -52  0
-23 51  0
-23 -45  0
23 41 -42 45 47 -51 52  0
-24 -41  0
-24 -42  0
-24 47  0
-24 -52  0
-24 51  0
-24 -45  0
24 41 42 45 -47 -51 52  0
-25 -41  0
-25 -42  0
-25 -47  0
-25 52  0
-25 51  0
-25 -45  0
25 41 42 45 47 -51 -52  0
-26 41  0
-26 -42  0
-26 -47  0
-26 -52  0
-26 -51  0
-26 45  0
26 -41 42 -45 47 51 52  0
-27 -41  0
-27 42  0
-27 -47  0
-27 -52  0
-27 -51  0
-27 45  0
27 41 -42 -45 47 51 52  0
-28 -41  0
-28 -42  0
-28 47  0
-28 -52  0
-28 -51  0
-28 45  0
28 41 42 -45 -47 51 52  0
-29 -41  0
-29 -42  0
-29 -47  0
-29 52  0
-29 -51  0
-29 45  0
29 41 42 -45 47 51 -52  0
-30 -41  0
-30 -42  0
-30 -47  0
-30 -52  0
-30 51  0
-30 45  0
30 41 42 -45 47 -51 52  0
15 16 17 18 19 20 21 23 24 25 26 27 28 29 30  0
49  0
